p cnf 22 11
e 1 2 0
a 3 4 0
e 5 0
a 6 7 0
e 8 9 0
a 10 0
e 11 12 13 0
a 14 15 0
e 16 0
a 17 18 0
e 19 0
a 20 0
e 21 0
a 22 0
8 -12 -10 6 -15 0
-15 -9 -6 -18 -10 0
-17 12 -16 4 -14 0
3 20 -17 -9 -18 0
17 -4 19 15 0
10 12 -11 2 0
9 22 19 -5 0
-21 10 -1 0
-3 -15 5 8 -6 0
19 -10 14 7 0
-10 -22 -1 0
